n=8;
m=21;
k=6;
initial_edges=[
(1, 3),
(1, 7),
(1, 6),
(1, 8),
(1, 4),
(2, 7),
(2, 5),
(2, 3),
(2, 8),
(2, 6),
(3, 4),
(3, 8),
(3, 6),
(3, 5),
(3, 7),
(4, 8),
(4, 5),
(5, 7),
(5, 8),
(6, 7),
(6, 8),
];